# Resolucion Ejercicio A - Viaje

# Data Section:
data;
set CAPITAL   :=  1 2 3 4 5 ;

set COORDENADAS   :=  X Y;

param DISTANCIA :     1 2 3 4 5 :=
                     1   . 4.726653149957165624e+03 1.204349201851356838e+03 6.362502102160752656e+03 3.656991249647720906e+03
                     2   4.726653149957165624e+03 . 3.587423169909008720e+03 2.011662247992937864e+03 1.841400825458704958e+03 
                     3   1.204349201851356838e+03 3.587423169909008720e+03 . 5.162027702366580343e+03 2.457865740841024945e+03
                     4   6.362502102160752656e+03 2.011662247992937864e+03 5.162027702366580343e+03 . 2.798672899786611197e+03
                     5   3.656991249647720906e+03 1.841400825458704958e+03 2.457865740841024945e+03 2.798672899786611197e+03 .;

end;